Minimize
  obj: x0 + x1 + x2 + x3 + x4 + x5

Subject To
  c0: x0 + x1 + x4 + x5 = 45
  c1: x1 + x2 = 8
  c2: x0 + x3 + x5 = 30
  c3: x0 + x2 + x4 = 35
  c4: x0 + x2 + x3 + x4 = 37
  c5: x0 + x1 + x2 + x4 + x5 = 51
  c6: x0 + x1 + x4 = 31

Bounds
  x0 >= 0
  x1 >= 0
  x2 >= 0
  x3 >= 0
  x4 >= 0
  x5 >= 0

Generals
  x0 x1 x2 x3 x4 x5

End
